n = 14;
m = 4;

G = 
[[0.   0.41 0.   0.54 0.74 0.31 0.   0.   0.76 0.19 0.   0.82 0.56 0.87]
 [0.41 0.   0.   0.   0.32 0.68 0.32 0.69 0.94 0.   0.24 0.   0.57 0.33]
 [0.   0.   0.   0.   0.92 0.   0.14 0.35 0.02 0.   0.57 0.49 0.84 0.88]
 [0.54 0.   0.   0.   0.   0.56 0.49 0.86 0.   0.   0.96 0.34 0.   0.29]
 [0.74 0.32 0.92 0.   0.   0.   0.07 0.49 0.5  0.15 0.95 0.9  0.22 0.  ]
 [0.31 0.68 0.   0.56 0.   0.   0.67 0.   0.   0.35 0.44 0.62 0.   0.  ]
 [0.   0.32 0.14 0.49 0.07 0.67 0.   0.   0.05 0.   0.4  0.35 0.43 0.  ]
 [0.   0.69 0.35 0.86 0.49 0.   0.   0.   0.74 0.   0.   0.   0.61 0.  ]
 [0.76 0.94 0.02 0.   0.5  0.   0.05 0.74 0.   0.1  0.02 0.   0.   0.09]
 [0.19 0.   0.   0.   0.15 0.35 0.   0.   0.1  0.   0.   0.   0.   0.  ]
 [0.   0.24 0.57 0.96 0.95 0.44 0.4  0.   0.02 0.   0.   0.   0.41 0.8 ]
 [0.82 0.   0.49 0.34 0.9  0.62 0.35 0.   0.   0.   0.   0.   0.71 0.  ]
 [0.56 0.57 0.84 0.   0.22 0.   0.43 0.61 0.   0.   0.41 0.71 0.   0.07]
 [0.87 0.33 0.88 0.29 0.   0.   0.   0.   0.09 0.   0.8  0.   0.07 0.  ]];

H = 
[[0.   0.61 0.83 0.  ]
 [0.61 0.   0.76 0.97]
 [0.83 0.76 0.   0.  ]
 [0.   0.97 0.   0.  ]];
